p cnf 8 63 
2 4 0 
-2 -4 0 
-2 -3 0 
-2 -5 0 
-2 -3 -5 0 
-3 2 6 0 
-3 -2 -6 0 
-4 -5 0 
-4 0 
-4 -5 0 
-5 -2 -4 0 
-5 -2 -6 0 
-5 -2 -8 0 
-5 2 4 6 8 0 
-5 -4 -6 0 
-5 -4 -8 0 
-5 -6 -8 0 
-6 9 5 3 0 
-6 -9 -5 0 
-6 -9 -3 0 
-6 -5 -3 0 
8 4 0 
-8 -4 0 
-8 -9 0 
-8 -5 0 
-8 -9 -5 0 
-9 8 6 0 
-9 -8 -6 0 
-3 -4 -5 0 
-3 -4 -6 0 
-3 -4 -7 0 
-3 -4 -8 0 
-3 -4 -9 0 
-3 -5 -6 0 
-3 -5 -7 0 
-3 -5 -8 0 
-3 -5 -9 0 
-3 -6 -7 0 
-3 -6 -8 0 
-3 -6 -9 0 
-3 -7 -8 0 
-3 -7 -9 0 
-3 -8 -9 0 
-4 -5 -6 0 
-4 -5 -7 0 
-4 -5 -8 0 
-4 -5 -9 0 
-4 -6 -7 0 
-4 -6 -8 0 
-4 -6 -9 0 
-4 -7 -8 0 
-4 -7 -9 0 
-4 -8 -9 0 
-5 -6 -7 0 
-5 -6 -8 0 
-5 -6 -9 0 
-5 -7 -8 0 
-5 -7 -9 0 
-5 -8 -9 0 
-6 -7 -8 0 
-6 -7 -9 0 
-6 -8 -9 0 
-7 -8 -9 0 
